52
23 47 16
47 45 125
45 15 156
15 28 201
28 52 645
52 1 150
1 6 45
6 41 76
41 16 408
16 20 253
20 29 242
29 22 179
22 19 94
19 49 35
49 43 175
43 33 80
33 34 21
34 35 15
35 36 85
36 37 43
37 39 35
39 38 43
38 48 115
48 31 50
31 21 97
21 30 104
30 17 80
17 2 135
2 44 220
44 18 75
18 40 92
40 7 64
7 8 183
8 9 83
9 42 308
42 32 365
32 50 475
50 11 188
11 10 387
10 51 399
51 13 319
13 12 206
12 46 324
46 25 186
25 26 126
26 27 110
27 24 329
24 3 109
3 5 70
5 14 40
14 4 25
4 23 32

